Set parameter Username
Academic license - for non-commercial use only - expires 2022-06-20
Gurobi Optimizer version 9.5.1 build v9.5.1rc2 (mac64[x86])
Thread count: 2 physical cores, 4 logical processors, using up to 4 threads
Optimize a model with 1681 rows, 1600 columns and 6360 nonzeros
Model fingerprint: 0x33cada62
Variable types: 0 continuous, 1600 integer (1600 binary)
Coefficient statistics:
  Matrix range     [1e+00, 1e+03]
  Objective range  [1e+00, 8e+00]
  Bounds range     [1e+00, 1e+00]
  RHS range        [1e+00, 4e+00]
Found heuristic solution: objective 143.5165221
Presolve removed 40 rows and 0 columns
Presolve time: 0.03s
Presolved: 1641 rows, 1600 columns, 6360 nonzeros
Variable types: 0 continuous, 1600 integer (1600 binary)
Found heuristic solution: objective 140.9537134

Root relaxation: objective 5.038717e+01, 577 iterations, 0.02 seconds (0.01 work units)

    Nodes    |    Current Node    |     Objective Bounds      |     Work
 Expl Unexpl |  Obj  Depth IntInf | Incumbent    BestBd   Gap | It/Node Time

     0     0   50.38717    0    4  140.95371   50.38717  64.3%     -    0s
H    0     0                      55.5651162   50.38717  9.32%     -    0s
H    0     0                      50.9727571   50.38717  1.15%     -    0s
     0     0   50.46357    0   92   50.97276   50.46357  1.00%     -    0s

Cutting planes:
  MIR: 1
  GUB cover: 1
  RLT: 2

Explored 1 nodes (628 simplex iterations) in 0.13 seconds (0.06 work units)
Thread count was 4 (of 4 available processors)

Solution count 4: 50.9728 55.5651 140.954 143.517 

Optimal solution found (tolerance 1.00e-04)
Best objective 5.097275705110e+01, best bound 5.097275705110e+01, gap 0.0000%
Gurobi Optimizer version 9.5.1 build v9.5.1rc2 (mac64[x86])
Thread count: 2 physical cores, 4 logical processors, using up to 4 threads
Optimize a model with 4841 rows, 6960 columns and 25292 nonzeros
Model fingerprint: 0x3588a022
Variable types: 5360 continuous, 1600 integer (1600 binary)
Coefficient statistics:
  Matrix range     [1e+00, 1e+03]
  Objective range  [1e+00, 8e+00]
  Bounds range     [1e+00, 1e+00]
  RHS range        [1e+00, 4e+00]

MIP start from previous solve produced solution with objective 50.9728 (0.01s)
Loaded MIP start from previous solve with objective 50.9728

Presolve removed 80 rows and 134 columns
Presolve time: 0.14s
Presolved: 4761 rows, 6826 columns, 25016 nonzeros
Variable types: 5226 continuous, 1600 integer (1600 binary)

Root relaxation: objective 5.038717e+01, 781 iterations, 0.06 seconds (0.02 work units)

    Nodes    |    Current Node    |     Objective Bounds      |     Work
 Expl Unexpl |  Obj  Depth IntInf | Incumbent    BestBd   Gap | It/Node Time

     0     0   50.38717    0    4   50.97276   50.38717  1.15%     -    0s
     0     0   50.59894    0  110   50.97276   50.59894  0.73%     -    0s

Explored 1 nodes (906 simplex iterations) in 0.66 seconds (0.17 work units)
Thread count was 4 (of 4 available processors)

Solution count 1: 50.9728 

Optimal solution found (tolerance 1.00e-04)
Best objective 5.097275705110e+01, best bound 5.097275705110e+01, gap 0.0000%
